Default write of storage_offers_DA.csv just to have a file (but constraint should be inactive)
Reading model...
...model read.
creating competitive generators file...
...competitive generators recorded.
Loading data...
.. day-ahead data read.
Compiling instance...
...instance created.
Creating Offer Mitigation (model will solve as dispatch if TRUE)...
...storage offer mitigation file created
Converting model to MPEC...
...converted
NOTE: initial MIP solve with only storage competitive to get feasible solution
Solving...

Welcome to IBM(R) ILOG(R) CPLEX(R) Interactive Optimizer 12.10.0.0
  with Simplex, Mixed Integer & Barrier Optimizers
5725-A06 5725-A29 5724-Y48 5724-Y49 5724-Y54 5724-Y55 5655-Y21
Copyright IBM Corp. 1988, 2019.  All Rights Reserved.

Type 'help' for a list of available commands.
Type 'help' followed by a command name for more
information on commands.

CPLEX> Logfile 'cplex.log' closed.
Logfile 'C:\Users\wenmi\Desktop\competitiveMPEC\logs\tmph7kq_ie4.cplex.log' open.
CPLEX> New value for parallel optimization mode: -1
CPLEX> New value for mixed integer optimality gap tolerance: 0.01
CPLEX> New value for deterministic time limit in ticks: 100000
CPLEX> Problem 'C:\Users\wenmi\Desktop\competitiveMPEC\logs\tmp2ltaext7.pyomo.lp' read.
Read time = 0.14 sec. (13.58 ticks)
CPLEX> Problem name         : C:\Users\wenmi\Desktop\competitiveMPEC\logs\tmp2ltaext7.pyomo.lp
Objective sense      : Maximize
Variables            :   53320  [Nneg: 1,  Box: 21805,  Free: 4416,
                                 Binary: 27098]
Objective nonzeros   :    8970
Linear constraints   :  122164  [Less: 40983,  Greater: 58612,  Equal: 22569]
  Nonzeros           :  287247
  RHS nonzeros       :   66947

Variables            : Min LB: -5000.000        Max UB: 1000000.       
Objective nonzeros   : Min   : 0.1000000        Max   : 795.1000       
Linear constraints   :
  Nonzeros           : Min   : 0.1000000        Max   : 1000000.       
  RHS nonzeros       : Min   : 0.1000000        Max   : 1000000.       
CPLEX> Version identifier: 12.10.0.0 | 2019-11-26 | 843d4de2ae
CPXPARAM_Parallel                                -1
CPXPARAM_DetTimeLimit                            100000
CPXPARAM_MIP_Tolerances_MIPGap                   0.01
Tried aggregator 3 times.
MIP Presolve eliminated 88324 rows and 19153 columns.
MIP Presolve added 3337 rows and 0 columns.
MIP Presolve modified 24472 coefficients.
Aggregator did 12841 substitutions.
Reduced MIP has 24336 rows, 20744 columns, and 66998 nonzeros.
Reduced MIP has 8198 binaries, 0 generals, 0 SOSs, and 0 indicators.
Presolve time = 0.17 sec. (163.13 ticks)
Probing fixed 416 vars, tightened 6196 bounds.
Probing time = 0.05 sec. (18.65 ticks)
Tried aggregator 2 times.
Detecting symmetries...
MIP Presolve eliminated 929 rows and 835 columns.
MIP Presolve modified 3001 coefficients.
Aggregator did 46 substitutions.
Reduced MIP has 23361 rows, 19863 columns, and 64162 nonzeros.
Reduced MIP has 7781 binaries, 0 generals, 0 SOSs, and 0 indicators.
Presolve time = 0.06 sec. (89.09 ticks)
Probing fixed 0 vars, tightened 265 bounds.
Probing time = 0.06 sec. (22.99 ticks)
Clique table members: 41801.
MIP emphasis: balance optimality and feasibility.
MIP search method: dynamic search.
Parallel mode: opportunistic, using up to 16 threads.
Root relaxation solution time = 0.22 sec. (571.27 ticks)

        Nodes                                         Cuts/
   Node  Left     Objective  IInf  Best Integer    Best Bound    ItCnt     Gap

      0     0     3941.7611    81                   3941.7611     5386         
*     0+    0                         3880.7392     3941.7611             1.57%
      0     0     3941.7611    81     3880.7392      Fract: 2     5416    1.57%
*     0+    0                         3935.8595     3941.7611             0.15%
*     0+    0                         3935.8595     3941.7611             0.15%

Gomory fractional cuts applied:  2

Root node processing (before b&c):
  Real time             =    1.14 sec. (1363.85 ticks)
Parallel b&c, 16 threads:
  Real time             =    0.00 sec. (0.00 ticks)
  Sync time (average)   =    0.00 sec.
  Wait time (average)   =    0.00 sec.
                          ------------
Total (root+branch&cut) =    1.14 sec. (1363.85 ticks)

Solution pool: 3 solutions saved.

MIP - Integer optimal, tolerance (0.01/1e-06):  Objective =  3.9358594833e+03
Current MIP best bound =  3.9417611057e+03 (gap = 5.90162, 0.15%)
Solution time =    1.16 sec.  Iterations = 5416  Nodes = 0 (1)
Deterministic time = 1364.01 ticks  (1179.94 ticks/sec)

CPLEX> Incumbent solution written to file 'C:\Users\wenmi\Desktop\competitiveMPEC\logs\tmpkx_s7a4k.cplex.sol'.
CPLEX> NOTE: no warmstart specified for MIP iteration, default behavior is true
NOTE: resolving with all competitive generators using storage-only solution to warmstart
Solving...

Welcome to IBM(R) ILOG(R) CPLEX(R) Interactive Optimizer 12.10.0.0
  with Simplex, Mixed Integer & Barrier Optimizers
5725-A06 5725-A29 5724-Y48 5724-Y49 5724-Y54 5724-Y55 5655-Y21
Copyright IBM Corp. 1988, 2019.  All Rights Reserved.

Type 'help' for a list of available commands.
Type 'help' followed by a command name for more
information on commands.

CPLEX> Logfile 'cplex.log' closed.
Logfile 'C:\Users\wenmi\Desktop\competitiveMPEC\logs\tmpv500n7fc.cplex.log' open.
CPLEX> New value for parallel optimization mode: -1
CPLEX> New value for mixed integer optimality gap tolerance: 0.01
CPLEX> New value for deterministic time limit in ticks: 100000
CPLEX> Problem 'C:\Users\wenmi\Desktop\competitiveMPEC\logs\tmp6mma4wge.pyomo.lp' read.
Read time = 0.14 sec. (13.60 ticks)
CPLEX> MIP start file 'C:\Users\wenmi\Desktop\competitiveMPEC\logs\tmpjsg4v49d.cplex.mst' read.
CPLEX> Problem name         : C:\Users\wenmi\Desktop\competitiveMPEC\logs\tmp6mma4wge.pyomo.lp
Objective sense      : Maximize
Variables            :   54040  [Nneg: 1,  Box: 22525,  Free: 4416,
                                 Binary: 27098]
Objective nonzeros   :    9666
Linear constraints   :  122164  [Less: 40983,  Greater: 58612,  Equal: 22569]
  Nonzeros           :  287247
  RHS nonzeros       :   66947

Variables            : Min LB: -5000.000        Max UB: 1000000.       
Objective nonzeros   : Min   : 0.1000000        Max   : 795.1000       
Linear constraints   :
  Nonzeros           : Min   : 0.1000000        Max   : 1000000.       
  RHS nonzeros       : Min   : 0.1000000        Max   : 1000000.       
CPLEX> Version identifier: 12.10.0.0 | 2019-11-26 | 843d4de2ae
CPXPARAM_Parallel                                -1
CPXPARAM_DetTimeLimit                            100000
CPXPARAM_MIP_Tolerances_MIPGap                   0.01
1 of 1 MIP starts provided solutions.
MIP start 'm1' defined initial solution with objective 46702.9141.
Tried aggregator 3 times.
MIP Presolve eliminated 88324 rows and 19873 columns.
MIP Presolve added 3337 rows and 0 columns.
MIP Presolve modified 24472 coefficients.
Aggregator did 12841 substitutions.
Reduced MIP has 24336 rows, 20744 columns, and 66998 nonzeros.
Reduced MIP has 8198 binaries, 0 generals, 0 SOSs, and 0 indicators.
Presolve time = 0.17 sec. (163.48 ticks)
Probing fixed 416 vars, tightened 6196 bounds.
Probing time = 0.05 sec. (18.65 ticks)
Tried aggregator 2 times.
Detecting symmetries...
MIP Presolve eliminated 929 rows and 835 columns.
MIP Presolve modified 3001 coefficients.
Aggregator did 46 substitutions.
Reduced MIP has 23361 rows, 19863 columns, and 64162 nonzeros.
Reduced MIP has 7781 binaries, 0 generals, 0 SOSs, and 0 indicators.
Presolve time = 0.06 sec. (89.09 ticks)
Probing fixed 0 vars, tightened 265 bounds.
Probing time = 0.06 sec. (22.99 ticks)
Clique table members: 41801.
MIP emphasis: balance optimality and feasibility.
MIP search method: dynamic search.
Parallel mode: opportunistic, using up to 16 threads.
Root relaxation solution time = 0.22 sec. (597.60 ticks)

        Nodes                                         Cuts/
   Node  Left     Objective  IInf  Best Integer    Best Bound    ItCnt     Gap

*     0+    0                        46702.9141   7.33499e+07              --- 
      0     0    75986.2685   180    46702.9141    75986.2685     5790   62.70%
      0     0    75120.6584   180    46702.9141     Cuts: 340     5943   60.85%
      0     0    75059.2079   180    46702.9141     Cuts: 145     6012   60.72%
      0     0    75024.9435   180    46702.9141     Cuts: 127     6032   60.64%
      0     0    75024.9435   180    46702.9141      Cuts: 11     6037   60.64%
      0    13    infeasible          46702.9141    74894.4322     6175   60.36%
Elapsed time = 2.67 sec. (2353.72 ticks, tree = 0.02 MB, solutions = 1)
    155    54    69962.4615    22    46702.9141    74239.0002     6588   58.96%
    501    88    64480.5065    21    46702.9141    74239.0002     6970   58.96%
    894   254    51061.6619    22    46702.9141    74239.0002     8119   58.96%
   1272   499    52676.5675    35    46702.9141    73986.8696    10128   58.42%
   1686   941        cutoff          46702.9141    71443.7544    14011   52.97%
   2137   919    63032.3300    40    46702.9141    71443.7544    13584   52.97%
   2593  1167    58313.6618    22    46702.9141    70857.7496    16767   51.72%
   2972  1137    56848.1231    17    46702.9141    70036.2086    16336   49.96%
   3343  1317    60804.5862    51    47053.9651    69728.1383    18370   48.19%
*  4106+ 2416                        47243.2003    69178.6149            46.43%
   4550  2359    48519.7196    23    47243.2003    69178.6149    26499   46.43%
Elapsed time = 14.17 sec. (5460.58 ticks, tree = 16.97 MB, solutions = 3)

Performing restart 1

Repeating presolve.
Tried aggregator 3 times.
MIP Presolve eliminated 778 rows and 704 columns.
MIP Presolve modified 36889 coefficients.
Aggregator did 238 substitutions.
Reduced MIP has 22345 rows, 18921 columns, and 60795 nonzeros.
Reduced MIP has 7477 binaries, 0 generals, 0 SOSs, and 0 indicators.
Presolve time = 0.08 sec. (93.14 ticks)
Tried aggregator 2 times.
MIP Presolve eliminated 435 rows and 360 columns.
MIP Presolve modified 12152 coefficients.
Aggregator did 7 substitutions.
Reduced MIP has 21903 rows, 18554 columns, and 59570 nonzeros.
Reduced MIP has 7297 binaries, 0 generals, 0 SOSs, and 0 indicators.
Presolve time = 0.03 sec. (40.94 ticks)
Tried aggregator 2 times.
MIP Presolve modified 9928 coefficients.
Aggregator did 1 substitutions.
Reduced MIP has 21902 rows, 18553 columns, and 59569 nonzeros.
Reduced MIP has 7297 binaries, 0 generals, 0 SOSs, and 0 indicators.
Presolve time = 0.06 sec. (52.66 ticks)
Represolve time = 0.63 sec. (497.81 ticks)
   4757     0    74885.3725   189    47243.2003     Cuts: 311    36175   41.91%
   4757     0    74883.5685   189    47243.2003      Cuts: 63    36219   41.91%
   4757     0    74883.5685   189    47243.2003      Cuts: 54    36267   41.91%
   4757     0    74883.5685   189    47243.2003      Cuts: 83    36313   41.91%
   4757     0    74865.1688   189    47243.2003      Cuts: 75    36395   41.91%
   4757     0    74865.1688   189    47243.2003      Cuts: 65    36445   41.91%
   4757    11    52238.9563    24    47243.2003    63927.8651    36515   35.32%
   5179    94    55363.9212    32    47243.2003    63927.8651    37849   35.32%
   6208   435    48652.0090    16    47243.2003    63927.8651    42592   35.32%
   7202  1043        cutoff          47243.2003    62225.4920    48444   31.71%
*  8767  1633      integral     0    50764.8487    60507.9253    55368   19.19%
  10558  1612    51569.4607    21    50764.8487    59036.8019    64860   16.29%
  12067  1979    50953.4696    22    50764.8487    57972.0534    74082   14.20%
  13302  3657    56253.1692    26    50764.8487    57964.3952    95257   14.18%
  15092  3028    50788.3905    19    50764.8487    57547.8521    88956   13.36%
  16847  4381    50774.3490     6    50764.8487    57528.5362   101023   13.32%
Elapsed time = 53.94 sec. (17960.15 ticks, tree = 31.57 MB, solutions = 5)
  18535  4723    50774.3490     6    50764.8487    56351.3864   107494   11.00%
  19863  5686        cutoff          50764.8487    56183.0584   136525   10.67%
  21121  4665        cutoff          50764.8487    54798.8079   162454    7.95%
  22082  4478    infeasible          50764.8487    52550.4565   165520    3.52%
  23692  5302    54350.4742    31    50764.8487    52436.2592   147846    3.29%
  25552  4427        cutoff          50764.8487    51953.5928   168625    2.34%
  27332  4625        cutoff          50764.8487    51429.1768   184090    1.31%
  28689  4735    50774.3490     3    50764.8487    51396.6572   188199    1.24%
  29832  5071    50774.3490     6    50764.8487    51396.6572   191331    1.24%
  30689  6227    50831.4418    30    50764.8487    51396.6572   201719    1.24%
Elapsed time = 76.98 sec. (27502.01 ticks, tree = 49.47 MB, solutions = 5)

Cover cuts applied:  6
Implied bound cuts applied:  6
Flow cuts applied:  59
Mixed integer rounding cuts applied:  8
Lift and project cuts applied:  1
Gomory fractional cuts applied:  13

Root node processing (before b&c):
  Real time             =    2.23 sec. (2345.79 ticks)
Parallel b&c, 16 threads:
  Real time             =   74.83 sec. (25420.29 ticks)
  Sync time (average)   =    0.90 sec.
  Wait time (average)   =    0.05 sec.
                          ------------
Total (root+branch&cut) =   77.06 sec. (27766.08 ticks)

Solution pool: 5 solutions saved.

MIP - Integer optimal, tolerance (0.01/1e-06):  Objective =  5.0764848697e+04
Current MIP best bound =  5.1253469464e+04 (gap = 488.621, 0.96%)
Solution time =   77.08 sec.  Iterations = 211739  Nodes = 30724 (6944)
Deterministic time = 27766.23 ticks  (360.24 ticks/sec)

CPLEX> Incumbent solution written to file 'C:\Users\wenmi\Desktop\competitiveMPEC\logs\tmpykv60fji.cplex.sol'.
CPLEX> Exporting results... 
